TCS_Benchmarks/redos_fix/regexlib1_output_distinct_3517_3516_0_0.txt
((((\s?style=&quot;?).*((\s?font-size:.+\s*((;|,)?)+)|(\s?color:.+\s*((;|,)?)+))[^qtu&;o]*((\s?font-size:.+\s*((;|,)?)+)|(\s?color:.+\s*((;|,)?)+))[^qtu&;o]*(&quot;?)|(\s?size=&quot;?.*((&quot;)?))|(\s?color=&quot;?.*((&quot;)?)))?).*){3}
.*